(set-logic QF_SLIA)
(declare-fun var0 () String)
(assert (str.in_re var0 (re.++ ((_ re.loop 18 346) (re.++ (re.union (str.to_re "2pb") (re.union (str.to_re "\\") (re.union (str.to_re "Q8") (str.to_re "_W")))) (re.++ (re.union (str.to_re "dM2") (re.union (str.to_re "b;") (re.union (str.to_re "Fj\u0022") (str.to_re "H")))) (re.++ (re.union (str.to_re "r") (re.union (str.to_re "=;'") (re.union (str.to_re "ZZS") (str.to_re "<")))) (re.union (str.to_re "Z+a") (re.union (str.to_re "\\<") (re.union (str.to_re "J") (str.to_re "o*")))))))) (re.++ ((_ re.loop 3 792) (re.++ (re.union (str.to_re "(") (re.union (str.to_re "Hm") (re.union (str.to_re "#G6") (str.to_re "BJS")))) (re.++ (re.union (str.to_re "o") (re.union (str.to_re "3X") (re.union (str.to_re "9") (str.to_re "IZ_")))) (re.++ (re.union (str.to_re "&") (re.union (str.to_re "SE*") (re.union (str.to_re "1u!") (str.to_re "$")))) (re.union (str.to_re "T") (re.union (str.to_re "f") (re.union (str.to_re "qXr") (str.to_re ";e")))))))) (re.++ ((_ re.loop 19 231) (re.++ (re.union (str.to_re ">{o") (re.union (str.to_re "]8t") (re.union (str.to_re "P") (str.to_re "rIa")))) (re.++ (re.union (str.to_re "2") (re.union (str.to_re "t") (re.union (str.to_re "E=O") (str.to_re "#x;")))) (re.++ (re.union (str.to_re "+1") (re.union (str.to_re "-") (re.union (str.to_re "U\u0022,") (str.to_re "h~m")))) (re.union (str.to_re "vDW") (re.union (str.to_re "i") (re.union (str.to_re "Zc") (str.to_re "KV")))))))) ((_ re.loop 6 952) (re.++ (re.union (str.to_re "gG*") (re.union (str.to_re "`") (re.union (str.to_re "]x") (str.to_re "M9")))) (re.++ (re.union (str.to_re "k9") (re.union (str.to_re "Lt") (re.union (str.to_re "v") (str.to_re "a")))) (re.++ (re.union (str.to_re "90[") (re.union (str.to_re "z") (re.union (str.to_re "7H") (str.to_re "\u0022")))) (re.union (str.to_re ",=v") (re.union (str.to_re "5D%") (re.union (str.to_re "UJ") (str.to_re "B}")))))))))))))
(assert (not (str.in_re var0 (re.++ ((_ re.loop 2 54) (re.++ (re.union (str.to_re ")vA") (re.union (str.to_re "a") (re.union (str.to_re "WV;") (str.to_re "Gw")))) (re.++ (re.union (str.to_re "V") (re.union (str.to_re "37") (re.union (str.to_re "K)") (str.to_re "/")))) (re.++ (re.union (str.to_re "HT_") (re.union (str.to_re "~") (re.union (str.to_re "!") (str.to_re "G.y")))) (re.union (str.to_re "Z|'") (re.union (str.to_re "X") (re.union (str.to_re "')") (str.to_re "e")))))))) (re.++ ((_ re.loop 4 529) (re.++ (re.union (str.to_re ",~") (re.union (str.to_re "|nj") (re.union (str.to_re "1") (str.to_re "I")))) (re.++ (re.union (str.to_re "88-") (re.union (str.to_re "8s\u0022") (re.union (str.to_re "[s") (str.to_re "/")))) (re.++ (re.union (str.to_re "o-") (re.union (str.to_re "hi2") (re.union (str.to_re "V!/") (str.to_re "7")))) (re.union (str.to_re "j") (re.union (str.to_re "fL") (re.union (str.to_re "P") (str.to_re "=g")))))))) (re.++ ((_ re.loop 1 259) (re.++ (re.union (str.to_re "bu") (re.union (str.to_re "Gf") (re.union (str.to_re "z`") (str.to_re "^>")))) (re.++ (re.union (str.to_re "F`") (re.union (str.to_re "w3") (re.union (str.to_re "[") (str.to_re "~\\\\")))) (re.++ (re.union (str.to_re "P65") (re.union (str.to_re "upz") (re.union (str.to_re "oK") (str.to_re "uZ")))) (re.union (str.to_re "?!D") (re.union (str.to_re "g2") (re.union (str.to_re "T") (str.to_re ">]")))))))) ((_ re.loop 2 897) (re.++ (re.union (str.to_re "oo") (re.union (str.to_re "aT") (re.union (str.to_re "i") (str.to_re "/")))) (re.++ (re.union (str.to_re ")Q") (re.union (str.to_re "0v") (re.union (str.to_re "#$!") (str.to_re ";p")))) (re.++ (re.union (str.to_re "6") (re.union (str.to_re ",ef") (re.union (str.to_re "s^") (str.to_re "[")))) (re.union (str.to_re "+bz") (re.union (str.to_re "Z") (re.union (str.to_re "%$") (str.to_re "{b"))))))))))))))
(assert (not (str.in_re var0 (re.++ (re.* re.allchar) (re.++ (re.union (str.to_re "<") (re.union (str.to_re ">") (re.union (str.to_re "'") (re.union (str.to_re "\u0022") (str.to_re "&"))))) (re.* re.allchar))))))
(assert (<= 50 (str.len var0)))
(check-sat)
(get-model)
